c Generated map
c Size: 9 * 9, weights in range: 1 to 10, walls: True, with ratio 0.05
c dim 2 of 7
c
p sp 81 131
c graph contains 81 nodes and 131 arcs
c
a 1 10 6
a 10 1 6
a 1 2 1
a 2 1 1
a 2 11 1
a 11 2 1
a 2 3 3
a 3 2 3
a 3 12 8
a 12 3 8
a 3 4 3
a 4 3 3
a 4 5 9
a 5 4 9
a 5 14 4
a 14 5 4
a 7 16 2
a 16 7 2
a 7 8 4
a 8 7 4
a 8 17 1
a 17 8 1
a 8 9 1
a 9 8 1
a 9 18 2
a 18 9 2
a 10 19 3
a 19 10 3
a 10 11 7
a 11 10 7
a 11 20 3
a 20 11 3
a 11 12 6
a 12 11 6
a 12 21 2
a 21 12 2
a 14 23 5
a 23 14 5
a 14 15 6
a 15 14 6
a 15 24 3
a 24 15 3
a 15 16 8
a 16 15 8
a 16 25 3
a 25 16 3
a 16 17 2
a 17 16 2
a 17 26 6
a 26 17 6
a 17 18 7
a 18 17 7
a 18 27 3
a 27 18 3
a 19 28 3
a 28 19 3
a 19 20 2
a 20 19 2
a 20 29 9
a 29 20 9
a 20 21 6
a 21 20 6
a 21 30 1
a 30 21 1
a 21 22 7
a 22 21 7
a 22 31 9
a 31 22 9
a 22 23 2
a 23 22 2
a 23 32 10
a 32 23 10
a 23 24 3
a 24 23 3
a 24 33 1
a 33 24 1
a 24 25 5
a 25 24 5
a 25 34 10
a 34 25 10
a 25 26 5
a 26 25 5
a 26 35 10
a 35 26 10
a 26 27 1
a 27 26 1
a 27 36 3
a 36 27 3
a 28 37 9
a 37 28 9
a 28 29 6
a 29 28 6
a 29 38 8
a 38 29 8
a 29 30 5
a 30 29 5
a 30 39 1
a 39 30 1
a 30 31 9
a 31 30 9
a 31 40 9
a 40 31 9
a 31 32 9
a 32 31 9
a 32 41 1
a 41 32 1
a 32 33 10
a 33 32 10
a 33 42 7
a 42 33 7
a 33 34 9
a 34 33 9
a 34 43 8
a 43 34 8
a 34 35 3
a 35 34 3
a 35 44 5
a 44 35 5
a 35 36 8
a 36 35 8
a 36 45 6
a 45 36 6
a 37 46 9
a 46 37 9
a 37 38 8
a 38 37 8
a 38 47 10
a 47 38 10
a 38 39 7
a 39 38 7
a 39 48 8
a 48 39 8
a 39 40 5
a 40 39 5
a 40 49 9
a 49 40 9
a 40 41 6
a 41 40 6
a 41 50 10
a 50 41 10
a 41 42 5
a 42 41 5
a 42 51 1
a 51 42 1
a 42 43 2
a 43 42 2
a 43 52 8
a 52 43 8
a 43 44 9
a 44 43 9
a 44 53 10
a 53 44 10
a 44 45 10
a 45 44 10
a 45 54 8
a 54 45 8
a 46 55 8
a 55 46 8
a 46 47 1
a 47 46 1
a 47 56 6
a 56 47 6
a 47 48 7
a 48 47 7
a 48 57 2
a 57 48 2
a 48 49 1
a 49 48 1
a 49 58 7
a 58 49 7
a 49 50 1
a 50 49 1
a 50 59 1
a 59 50 1
a 50 51 4
a 51 50 4
a 51 60 9
a 60 51 9
a 51 52 8
a 52 51 8
a 52 61 10
a 61 52 10
a 52 53 1
a 53 52 1
a 53 62 4
a 62 53 4
a 53 54 2
a 54 53 2
a 54 63 4
a 63 54 4
a 55 56 4
a 56 55 4
a 56 65 7
a 65 56 7
a 56 57 3
a 57 56 3
a 57 66 3
a 66 57 3
a 57 58 4
a 58 57 4
a 58 67 5
a 67 58 5
a 58 59 9
a 59 58 9
a 59 68 9
a 68 59 9
a 59 60 7
a 60 59 7
a 60 69 7
a 69 60 7
a 60 61 7
a 61 60 7
a 61 70 8
a 70 61 8
a 61 62 4
a 62 61 4
a 62 71 8
a 71 62 8
a 62 63 4
a 63 62 4
a 63 72 9
a 72 63 9
a 65 74 9
a 74 65 9
a 65 66 3
a 66 65 3
a 66 75 8
a 75 66 8
a 66 67 6
a 67 66 6
a 67 68 7
a 68 67 7
a 68 77 4
a 77 68 4
a 68 69 9
a 69 68 9
a 69 78 5
a 78 69 5
a 69 70 1
a 70 69 1
a 70 79 5
a 79 70 5
a 70 71 6
a 71 70 6
a 71 80 7
a 80 71 7
a 71 72 4
a 72 71 4
a 72 81 10
a 81 72 10
a 73 74 6
a 74 73 6
a 74 75 6
a 75 74 6
a 77 78 8
a 78 77 8
a 78 79 4
a 79 78 4
a 79 80 8
a 80 79 8
a 80 81 1
a 81 80 1
